(set-logic QF_S)
(declare-fun var_0xINPUT_86293 () String)
(assert (and (= (len var_0xINPUT_86293) 0) (= (len var_0xINPUT_86293) 0) (not (= var_0xINPUT_86293 "6JX7G3VKFq"))))
(check-sat var_0xINPUT_86293)